1758.24
0 81 41 36 84 7 3 18 25 39 8 69 64 46 57 53 97 56 11 15 14 78 52 89 50 45 62 10 99 94 24 58 90 74 31 42 76 34 4 26 65 79 73 1 12 33 54 77 91 43 83 55 60 27 5 59 32 38 95 70 23 80 21 85 86 30 49 75 67 51 48 66 63 9 47 68 29 2 96 16 44 93 92 61 98 72 22 13 28 40 88 87 19 35 71 20 82 17 6 37
